c File: instances/24_0.15_2.col
c
c Description: Random graph of size 24 vertices and P(0.15000000000000002) of edges between any two vertices.
p col 24 276
e 1 22
e 2 7
e 2 15
e 2 18
e 2 24
e 3 10
e 3 18
e 3 20
e 4 6
e 4 11
e 4 15
e 5 7
e 5 23
e 5 24
e 6 14
e 6 16
e 7 10
e 9 20
e 9 22
e 10 12
e 10 20
e 10 24
e 11 19
e 12 15
e 12 18
e 13 22
e 14 19
e 15 21
e 16 21
e 16 23
e 18 21